% demand
num_movements = 19;
loading_factor = [1000, 850, 1100, 1400, 850, 1350, 800, 1050, 1650, 1300, 1900, 1200, 800, 1200, 1800, 1150, 800, 1100, 1550];
pickup_time = [0, 0, 0, 0, 1, 1, 1, 1, 1, 1, 3, 3, 3, 4, 4, 5, 6, 6, 6];
delivery_time = [1, 1, 1, 1, 4, 4, 2, 2, 2, 2, 5, 8, 5, 7, 5, 8, 7, 7, 7];

% transporter definition
total_capacity = 7000;
num_decks = 3;
capacity = [3000, 1000, 3000];

% ways out of decks
num_ways_out = 1;
paths_out = array3d(decks, ways_out, decks, [
% ways out of deck d1
2, 3, 0, 

% ways out of deck d2
3, 0, 0, 

% ways out of deck d3
0, 0, 0,	

]);

